p tw 80 91
1 2
2 13
3 4
4 5
5 6
6 7
7 8
8 9
9 10
10 11
11 12
12 14
13 24
13 18
14 15
15 16
16 17
17 18
18 19
19 20
20 21
21 22
22 23
23 25
23 30
24 35
25 26
26 27
26 43
27 28
28 29
28 71
29 74
30 31
31 32
31 33
32 33
33 34
34 36
35 46
36 37
37 38
38 39
39 40
40 41
41 42
42 43
43 44
44 45
44 47
45 77
46 57
47 48
48 49
49 50
50 51
50 30
51 52
52 53
53 54
54 55
54 30
55 56
56 58
56 63
57 68
58 59
59 60
60 61
60 63
61 62
62 63
63 64
64 65
65 66
66 67
67 69
68 79
69 70
70 71
71 72
72 73
72 30
73 77
74 75
75 76
76 77
77 78
79 80
79 18
80 3
